100
2993
7
32
80
39
22
48
31
4
0 2
0 4
0 5
0 6
0 8
0 9
0 11
0 12
0 14
0 15
0 17
0 19
0 20
0 22
0 23
0 24
0 25
0 26
0 28
0 29
0 31
0 33
0 35
0 37
0 38
0 40
0 41
0 43
0 44
0 46
0 47
0 49
0 50
0 51
0 52
0 53
0 56
0 59
0 60
0 61
0 64
0 65
0 66
0 67
0 70
0 75
0 78
0 79
0 80
0 83
0 84
0 85
0 86
0 87
0 88
0 89
0 90
0 91
0 93
0 95
0 97
0 98
0 99
1 2
1 4
1 5
1 7
1 8
1 9
1 10
1 11
1 12
1 13
1 14
1 17
1 18
1 22
1 23
1 24
1 29
1 30
1 31
1 32
1 34
1 35
1 37
1 38
1 39
1 40
1 41
1 45
1 46
1 47
1 51
1 52
1 53
1 56
1 57
1 59
1 61
1 62
1 69
1 71
1 72
1 76
1 77
1 78
1 80
1 81
1 82
1 83
1 85
1 87
1 90
1 93
1 94
1 95
1 96
1 98
1 99
2 3
2 4
2 7
2 10
2 11
2 12
2 13
2 14
2 15
2 16
2 18
2 19
2 23
2 24
2 28
2 29
2 31
2 32
2 35
2 36
2 40
2 41
2 42
2 45
2 46
2 48
2 49
2 50
2 53
2 54
2 55
2 56
2 58
2 59
2 61
2 62
2 65
2 67
2 68
2 70
2 73
2 74
2 77
2 78
2 79
2 80
2 84
2 85
2 86
2 88
2 90
2 91
2 92
2 95
2 97
2 98
3 4
3 5
3 8
3 9
3 10
3 11
3 13
3 14
3 17
3 19
3 20
3 21
3 22
3 23
3 30
3 31
3 32
3 33
3 37
3 38
3 39
3 40
3 41
3 42
3 46
3 48
3 49
3 51
3 52
3 57
3 58
3 59
3 61
3 62
3 64
3 65
3 68
3 71
3 72
3 74
3 75
3 79
3 81
3 83
3 85
3 87
3 88
3 89
3 90
3 91
3 92
3 94
3 96
3 97
3 99
4 8
4 9
4 10
4 11
4 12
4 13
4 15
4 18
4 19
4 20
4 21
4 22
4 23
4 24
4 26
4 28
4 29
4 31
4 32
4 33
4 35
4 36
4 37
4 39
4 40
4 41
4 42
4 44
4 47
4 48
4 49
4 51
4 55
4 58
4 59
4 60
4 61
4 62
4 63
4 65
4 67
4 69
4 70
4 73
4 74
4 75
4 76
4 77
4 80
4 81
4 82
4 83
4 84
4 86
4 87
4 88
4 89
4 94
4 95
4 97
4 98
5 9
5 10
5 11
5 12
5 13
5 14
5 15
5 16
5 17
5 18
5 20
5 24
5 25
5 26
5 27
5 28
5 30
5 32
5 33
5 34
5 35
5 36
5 37
5 39
5 40
5 42
5 44
5 45
5 46
5 47
5 52
5 54
5 56
5 57
5 58
5 60
5 61
5 66
5 67
5 68
5 71
5 72
5 73
5 74
5 75
5 79
5 81
5 82
5 85
5 86
5 90
5 94
5 95
5 96
5 98
5 99
6 7
6 8
6 9
6 11
6 12
6 13
6 16
6 17
6 20
6 22
6 23
6 24
6 25
6 26
6 27
6 28
6 30
6 31
6 32
6 33
6 34
6 35
6 36
6 38
6 39
6 41
6 42
6 43
6 44
6 45
6 51
6 52
6 56
6 59
6 63
6 64
6 66
6 68
6 69
6 71
6 72
6 73
6 74
6 76
6 78
6 79
6 80
6 85
6 86
6 89
6 91
6 93
6 94
6 96
6 98
6 99
7 8
7 10
7 11
7 12
7 13
7 14
7 17
7 18
7 19
7 20
7 21
7 23
7 24
7 25
7 29
7 30
7 31
7 32
7 33
7 35
7 36
7 37
7 38
7 40
7 41
7 42
7 43
7 45
7 48
7 54
7 56
7 57
7 62
7 63
7 64
7 65
7 66
7 68
7 69
7 72
7 73
7 74
7 75
7 76
7 77
7 79
7 80
7 83
7 84
7 85
7 86
7 87
7 88
7 91
7 92
7 93
7 94
7 95
7 96
7 97
7 99
8 11
8 12
8 14
8 17
8 19
8 20
8 23
8 24
8 26
8 27
8 28
8 30
8 31
8 32
8 33
8 34
8 35
8 37
8 38
8 39
8 41
8 43
8 45
8 46
8 47
8 48
8 53
8 54
8 55
8 57
8 58
8 60
8 62
8 63
8 64
8 66
8 67
8 70
8 71
8 72
8 73
8 76
8 78
8 80
8 83
8 84
8 85
8 86
8 88
8 89
8 90
8 92
8 93
8 94
8 97
8 99
9 11
9 14
9 16
9 17
9 19
9 21
9 22
9 23
9 25
9 26
9 27
9 28
9 29
9 31
9 33
9 35
9 37
9 38
9 40
9 41
9 42
9 44
9 47
9 48
9 49
9 50
9 51
9 52
9 54
9 55
9 58
9 59
9 60
9 61
9 62
9 63
9 64
9 69
9 72
9 74
9 76
9 79
9 81
9 82
9 83
9 84
9 87
9 89
9 92
9 93
9 95
9 96
9 98
9 99
10 14
10 15
10 16
10 17
10 22
10 23
10 24
10 25
10 30
10 31
10 33
10 34
10 35
10 36
10 41
10 42
10 43
10 44
10 48
10 49
10 50
10 51
10 54
10 57
10 59
10 60
10 61
10 62
10 63
10 64
10 65
10 67
10 69
10 71
10 73
10 74
10 75
10 81
10 84
10 86
10 87
10 89
10 92
10 93
10 94
10 97
10 98
11 12
11 13
11 16
11 17
11 18
11 19
11 21
11 22
11 23
11 24
11 25
11 27
11 28
11 29
11 30
11 31
11 33
11 34
11 35
11 38
11 40
11 41
11 42
11 43
11 45
11 47
11 51
11 55
11 56
11 58
11 59
11 60
11 61
11 62
11 64
11 65
11 66
11 67
11 68
11 69
11 71
11 72
11 73
11 74
11 76
11 77
11 79
11 81
11 82
11 84
11 86
11 89
11 91
11 93
11 95
11 98
12 15
12 16
12 18
12 19
12 21
12 22
12 23
12 24
12 25
12 27
12 28
12 29
12 31
12 32
12 33
12 35
12 36
12 38
12 39
12 40
12 41
12 43
12 44
12 45
12 46
12 48
12 49
12 50
12 52
12 53
12 54
12 55
12 57
12 58
12 62
12 64
12 65
12 66
12 69
12 70
12 73
12 75
12 76
12 77
12 79
12 80
12 81
12 83
12 84
12 88
12 89
12 90
12 91
12 95
12 96
12 98
13 15
13 21
13 24
13 25
13 26
13 28
13 29
13 30
13 35
13 37
13 45
13 47
13 50
13 51
13 52
13 53
13 54
13 59
13 62
13 64
13 66
13 67
13 68
13 69
13 70
13 71
13 72
13 78
13 79
13 80
13 83
13 87
13 90
13 91
13 94
13 97
13 99
14 15
14 16
14 17
14 18
14 19
14 21
14 22
14 23
14 24
14 26
14 28
14 29
14 30
14 32
14 33
14 34
14 35
14 36
14 37
14 39
14 41
14 42
14 44
14 46
14 47
14 48
14 49
14 52
14 54
14 55
14 57
14 58
14 60
14 62
14 64
14 65
14 67
14 68
14 69
14 70
14 71
14 73
14 75
14 76
14 77
14 79
14 80
14 81
14 83
14 84
14 85
14 86
14 87
14 88
14 89
14 90
14 91
14 92
14 93
14 94
14 95
14 96
15 16
15 17
15 25
15 27
15 29
15 30
15 31
15 32
15 35
15 36
15 39
15 40
15 41
15 42
15 43
15 48
15 51
15 52
15 53
15 54
15 55
15 56
15 57
15 58
15 59
15 60
15 63
15 65
15 66
15 67
15 68
15 69
15 70
15 75
15 76
15 77
15 78
15 79
15 80
15 81
15 82
15 83
15 85
15 86
15 87
15 88
15 89
15 90
15 92
15 96
15 97
15 98
15 99
16 17
16 18
16 20
16 21
16 22
16 23
16 25
16 28
16 29
16 33
16 35
16 40
16 43
16 44
16 45
16 46
16 47
16 48
16 52
16 53
16 56
16 57
16 58
16 61
16 62
16 63
16 67
16 71
16 72
16 73
16 74
16 75
16 76
16 80
16 81
16 82
16 83
16 85
16 87
16 88
16 90
16 92
16 94
16 96
16 97
16 99
17 18
17 19
17 20
17 23
17 24
17 26
17 27
17 29
17 30
17 31
17 32
17 33
17 34
17 36
17 37
17 38
17 39
17 41
17 42
17 43
17 44
17 45
17 47
17 49
17 52
17 54
17 55
17 58
17 59
17 61
17 63
17 65
17 66
17 67
17 69
17 70
17 72
17 73
17 74
17 77
17 78
17 80
17 81
17 83
17 85
17 88
17 89
17 91
17 92
17 93
17 94
17 95
17 96
17 97
17 98
18 19
18 20
18 22
18 26
18 28
18 30
18 32
18 33
18 34
18 36
18 38
18 39
18 40
18 41
18 42
18 43
18 44
18 45
18 46
18 50
18 51
18 52
18 53
18 54
18 55
18 57
18 58
18 60
18 61
18 62
18 63
18 64
18 65
18 67
18 68
18 69
18 70
18 71
18 72
18 74
18 75
18 76
18 77
18 79
18 81
18 82
18 83
18 84
18 85
18 86
18 87
18 88
18 91
18 93
18 94
18 96
18 99
19 20
19 21
19 22
19 25
19 26
19 27
19 28
19 29
19 30
19 31
19 34
19 36
19 38
19 39
19 40
19 41
19 42
19 43
19 48
19 52
19 53
19 54
19 55
19 57
19 58
19 59
19 60
19 61
19 65
19 67
19 68
19 69
19 70
19 71
19 72
19 73
19 75
19 76
19 77
19 79
19 82
19 83
19 84
19 85
19 87
19 88
19 90
19 95
19 96
19 97
19 98
19 99
20 21
20 22
20 24
20 25
20 27
20 31
20 33
20 36
20 38
20 39
20 41
20 45
20 47
20 48
20 51
20 52
20 53
20 54
20 55
20 57
20 59
20 61
20 63
20 65
20 67
20 70
20 71
20 72
20 73
20 74
20 75
20 76
20 77
20 78
20 80
20 82
20 85
20 86
20 87
20 89
20 91
20 93
20 94
20 95
20 96
20 98
21 22
21 23
21 24
21 25
21 26
21 27
21 30
21 31
21 33
21 34
21 35
21 37
21 38
21 39
21 41
21 42
21 43
21 46
21 49
21 50
21 51
21 52
21 55
21 56
21 57
21 58
21 59
21 60
21 64
21 65
21 66
21 67
21 70
21 71
21 72
21 73
21 77
21 78
21 79
21 80
21 83
21 84
21 85
21 87
21 90
21 91
21 92
21 97
21 98
21 99
22 25
22 27
22 28
22 30
22 31
22 36
22 37
22 38
22 40
22 42
22 48
22 51
22 53
22 55
22 56
22 58
22 60
22 61
22 62
22 64
22 66
22 68
22 71
22 73
22 74
22 75
22 78
22 80
22 83
22 84
22 86
22 87
22 88
22 89
22 92
22 93
22 94
22 95
22 96
22 97
22 98
22 99
23 25
23 26
23 27
23 29
23 31
23 34
23 36
23 39
23 40
23 42
23 43
23 44
23 45
23 48
23 51
23 52
23 53
23 54
23 61
23 62
23 64
23 67
23 69
23 70
23 72
23 73
23 77
23 78
23 79
23 83
23 84
23 86
23 87
23 90
23 92
23 93
23 94
23 95
24 27
24 28
24 29
24 30
24 31
24 32
24 33
24 40
24 41
24 42
24 43
24 44
24 45
24 46
24 48
24 49
24 51
24 52
24 53
24 54
24 57
24 60
24 61
24 62
24 64
24 66
24 70
24 72
24 74
24 76
24 77
24 79
24 81
24 82
24 83
24 87
24 90
24 91
24 92
24 93
24 95
24 97
24 99
25 28
25 29
25 30
25 32
25 33
25 36
25 37
25 38
25 39
25 40
25 41
25 44
25 46
25 47
25 48
25 49
25 51
25 52
25 54
25 55
25 57
25 58
25 59
25 62
25 65
25 68
25 69
25 70
25 72
25 73
25 74
25 75
25 76
25 77
25 78
25 79
25 81
25 83
25 85
25 86
25 87
25 89
25 90
25 91
25 93
25 94
25 96
25 98
25 99
26 27
26 28
26 29
26 30
26 34
26 35
26 38
26 39
26 40
26 42
26 45
26 49
26 51
26 52
26 53
26 54
26 56
26 57
26 58
26 60
26 61
26 63
26 64
26 65
26 66
26 67
26 70
26 72
26 73
26 74
26 77
26 78
26 79
26 80
26 82
26 84
26 86
26 87
26 88
26 89
26 91
26 92
26 96
26 98
26 99
27 28
27 29
27 32
27 33
27 34
27 36
27 37
27 38
27 39
27 41
27 44
27 45
27 46
27 47
27 49
27 52
27 54
27 55
27 59
27 60
27 61
27 62
27 63
27 64
27 65
27 66
27 67
27 68
27 69
27 70
27 72
27 74
27 75
27 76
27 77
27 78
27 80
27 85
27 88
27 89
27 90
27 91
27 93
27 95
27 98
27 99
28 29
28 32
28 33
28 35
28 36
28 38
28 39
28 43
28 44
28 46
28 48
28 54
28 55
28 58
28 59
28 60
28 63
28 65
28 66
28 67
28 68
28 69
28 70
28 71
28 72
28 73
28 74
28 75
28 76
28 77
28 78
28 80
28 81
28 83
28 85
28 86
28 87
28 88
28 89
28 94
28 96
28 97
28 98
28 99
29 30
29 31
29 32
29 33
29 36
29 38
29 39
29 40
29 41
29 42
29 43
29 44
29 46
29 47
29 48
29 50
29 52
29 56
29 57
29 58
29 59
29 60
29 62
29 64
29 65
29 67
29 69
29 70
29 72
29 74
29 75
29 76
29 78
29 79
29 82
29 83
29 84
29 86
29 89
29 93
29 94
29 97
29 98
30 33
30 39
30 40
30 42
30 43
30 44
30 49
30 50
30 51
30 52
30 53
30 56
30 58
30 60
30 64
30 69
30 72
30 73
30 76
30 77
30 78
30 80
30 82
30 83
30 87
30 89
30 90
30 91
30 92
30 93
30 94
30 95
30 96
30 97
30 98
30 99
31 32
31 34
31 35
31 36
31 37
31 38
31 40
31 41
31 42
31 43
31 44
31 45
31 46
31 48
31 49
31 50
31 53
31 56
31 57
31 58
31 59
31 62
31 64
31 65
31 66
31 67
31 68
31 70
31 71
31 73
31 75
31 77
31 78
31 79
31 80
31 81
31 83
31 84
31 85
31 86
31 89
31 91
31 93
31 95
31 96
31 97
31 99
32 33
32 35
32 36
32 38
32 39
32 40
32 44
32 45
32 46
32 47
32 49
32 51
32 54
32 55
32 56
32 57
32 58
32 60
32 61
32 63
32 64
32 65
32 66
32 67
32 68
32 71
32 72
32 77
32 78
32 79
32 81
32 84
32 85
32 86
32 87
32 89
32 91
32 92
32 93
32 94
32 95
32 96
32 97
32 99
33 34
33 35
33 36
33 40
33 42
33 43
33 44
33 45
33 50
33 51
33 52
33 53
33 54
33 55
33 57
33 59
33 60
33 61
33 62
33 67
33 70
33 74
33 78
33 80
33 81
33 82
33 85
33 87
33 88
33 90
33 92
33 93
33 94
33 95
33 98
33 99
34 35
34 36
34 37
34 40
34 41
34 42
34 45
34 46
34 47
34 48
34 49
34 51
34 52
34 57
34 58
34 59
34 60
34 65
34 66
34 67
34 68
34 69
34 70
34 72
34 74
34 75
34 76
34 77
34 78
34 79
34 80
34 82
34 84
34 85
34 86
34 87
34 88
34 89
34 90
34 91
34 92
34 96
34 97
34 99
35 36
35 41
35 45
35 46
35 50
35 54
35 55
35 57
35 60
35 61
35 62
35 63
35 64
35 65
35 66
35 67
35 68
35 69
35 70
35 71
35 72
35 73
35 74
35 75
35 76
35 77
35 78
35 80
35 82
35 83
35 85
35 86
35 87
35 92
35 93
35 94
35 95
35 97
35 98
36 40
36 42
36 43
36 45
36 47
36 49
36 53
36 54
36 55
36 56
36 59
36 63
36 64
36 66
36 67
36 68
36 69
36 71
36 72
36 74
36 75
36 77
36 80
36 82
36 84
36 85
36 86
36 87
36 88
36 89
36 90
36 91
36 93
36 94
36 95
36 97
36 99
37 38
37 39
37 41
37 42
37 43
37 44
37 45
37 46
37 47
37 48
37 49
37 50
37 52
37 55
37 58
37 59
37 61
37 62
37 64
37 65
37 66
37 67
37 69
37 70
37 71
37 74
37 75
37 80
37 81
37 83
37 84
37 85
37 86
37 87
37 88
37 90
37 93
37 95
37 96
37 97
37 99
38 39
38 40
38 42
38 43
38 44
38 46
38 47
38 49
38 50
38 51
38 52
38 53
38 56
38 57
38 59
38 61
38 62
38 63
38 68
38 69
38 71
38 73
38 76
38 79
38 80
38 82
38 83
38 85
38 86
38 87
38 88
38 89
38 90
38 93
38 94
38 96
38 97
38 98
39 42
39 43
39 44
39 45
39 46
39 47
39 48
39 49
39 50
39 52
39 53
39 55
39 56
39 57
39 61
39 62
39 63
39 64
39 66
39 67
39 69
39 70
39 72
39 73
39 74
39 75
39 76
39 78
39 79
39 82
39 85
39 86
39 87
39 89
39 92
39 94
39 95
39 97
40 41
40 42
40 43
40 44
40 46
40 47
40 51
40 52
40 53
40 56
40 57
40 58
40 59
40 60
40 62
40 63
40 66
40 67
40 68
40 70
40 71
40 72
40 74
40 76
40 77
40 78
40 80
40 82
40 85
40 87
40 88
40 89
40 90
40 94
40 95
40 96
40 97
40 98
40 99
41 42
41 44
41 45
41 46
41 47
41 48
41 49
41 50
41 51
41 52
41 54
41 55
41 56
41 57
41 58
41 59
41 60
41 61
41 62
41 67
41 69
41 71
41 73
41 74
41 76
41 77
41 79
41 80
41 81
41 83
41 84
41 85
41 87
41 89
41 92
41 93
41 94
41 96
41 97
41 98
42 43
42 45
42 49
42 50
42 51
42 52
42 53
42 54
42 57
42 58
42 59
42 61
42 63
42 64
42 65
42 68
42 69
42 70
42 72
42 73
42 74
42 75
42 77
42 79
42 80
42 81
42 82
42 83
42 84
42 85
42 86
42 87
42 88
42 89
42 91
42 92
42 95
42 97
42 98
42 99
43 44
43 46
43 48
43 49
43 52
43 53
43 60
43 62
43 63
43 64
43 65
43 66
43 67
43 70
43 72
43 73
43 74
43 75
43 77
43 78
43 80
43 82
43 84
43 86
43 87
43 89
43 93
43 94
43 96
43 97
43 98
44 45
44 46
44 47
44 50
44 52
44 54
44 55
44 59
44 60
44 61
44 62
44 68
44 69
44 70
44 73
44 75
44 76
44 77
44 78
44 80
44 84
44 85
44 87
44 90
44 94
44 95
44 96
44 97
44 98
44 99
45 47
45 48
45 51
45 52
45 54
45 55
45 56
45 60
45 61
45 63
45 64
45 66
45 67
45 68
45 70
45 71
45 73
45 74
45 75
45 76
45 77
45 78
45 82
45 84
45 86
45 87
45 89
45 90
45 91
45 92
45 94
45 97
45 99
46 47
46 48
46 49
46 50
46 51
46 60
46 61
46 63
46 66
46 68
46 70
46 78
46 79
46 84
46 85
46 88
46 89
46 90
46 91
46 93
46 94
46 95
47 48
47 50
47 51
47 52
47 53
47 55
47 56
47 57
47 60
47 62
47 63
47 64
47 65
47 66
47 68
47 69
47 70
47 73
47 75
47 77
47 79
47 80
47 81
47 82
47 83
47 88
47 89
47 90
47 94
47 95
47 97
47 99
48 50
48 51
48 53
48 54
48 55
48 57
48 58
48 60
48 62
48 63
48 64
48 66
48 67
48 68
48 70
48 75
48 79
48 80
48 81
48 82
48 84
48 85
48 86
48 87
48 88
48 89
48 91
48 92
48 93
48 94
48 97
48 98
48 99
49 50
49 51
49 52
49 53
49 55
49 56
49 57
49 59
49 60
49 61
49 63
49 64
49 66
49 67
49 68
49 71
49 72
49 73
49 75
49 79
49 80
49 83
49 85
49 88
49 89
49 92
49 97
49 98
50 52
50 55
50 56
50 57
50 58
50 59
50 61
50 66
50 68
50 69
50 70
50 74
50 75
50 76
50 77
50 78
50 79
50 80
50 81
50 82
50 84
50 85
50 88
50 89
50 90
50 92
50 93
50 94
50 96
50 97
51 52
51 54
51 58
51 60
51 68
51 69
51 70
51 71
51 72
51 73
51 74
51 75
51 77
51 78
51 79
51 81
51 82
51 88
51 89
51 94
51 98
51 99
52 53
52 55
52 57
52 59
52 61
52 62
52 63
52 64
52 65
52 67
52 68
52 70
52 72
52 73
52 74
52 76
52 81
52 82
52 83
52 84
52 85
52 88
52 89
52 92
52 94
52 95
52 96
52 99
53 54
53 56
53 57
53 58
53 59
53 61
53 63
53 64
53 65
53 67
53 69
53 70
53 72
53 75
53 76
53 77
53 79
53 81
53 83
53 84
53 85
53 86
53 89
53 90
53 91
53 92
53 93
53 95
53 97
53 98
53 99
54 56
54 58
54 59
54 61
54 63
54 66
54 69
54 72
54 73
54 75
54 77
54 78
54 80
54 81
54 83
54 86
54 87
54 93
54 94
54 95
54 97
54 98
54 99
55 57
55 59
55 61
55 62
55 63
55 64
55 66
55 67
55 68
55 69
55 71
55 73
55 74
55 75
55 76
55 78
55 79
55 80
55 83
55 84
55 86
55 88
55 90
55 93
55 94
55 96
55 97
56 57
56 59
56 60
56 61
56 63
56 64
56 65
56 66
56 67
56 70
56 71
56 72
56 75
56 76
56 77
56 78
56 79
56 84
56 86
56 90
56 91
56 92
56 95
56 96
56 97
56 98
56 99
57 58
57 59
57 61
57 62
57 63
57 64
57 65
57 68
57 71
57 74
57 78
57 80
57 81
57 83
57 84
57 88
57 89
57 91
57 92
57 93
57 94
57 95
57 97
58 59
58 63
58 64
58 66
58 68
58 69
58 70
58 73
58 76
58 78
58 79
58 81
58 82
58 83
58 84
58 85
58 86
58 88
58 89
58 91
58 92
58 93
58 94
58 95
58 96
58 97
58 98
58 99
59 61
59 62
59 63
59 64
59 66
59 67
59 68
59 71
59 73
59 75
59 79
59 80
59 81
59 83
59 86
59 87
59 89
59 90
59 91
59 93
59 94
59 95
59 96
59 99
60 61
60 62
60 63
60 65
60 67
60 68
60 71
60 74
60 75
60 76
60 78
60 79
60 80
60 82
60 83
60 84
60 85
60 89
60 91
60 92
60 94
60 95
60 96
60 97
60 99
61 64
61 65
61 67
61 69
61 70
61 72
61 73
61 79
61 80
61 82
61 84
61 85
61 86
61 87
61 88
61 92
61 93
61 94
61 95
61 96
61 97
61 99
62 63
62 65
62 68
62 69
62 70
62 71
62 72
62 75
62 76
62 80
62 81
62 83
62 84
62 87
62 90
62 92
62 93
62 94
62 95
62 97
62 98
63 64
63 65
63 66
63 68
63 69
63 71
63 74
63 76
63 77
63 78
63 80
63 81
63 83
63 84
63 85
63 86
63 87
63 88
63 89
63 90
63 91
63 92
63 94
63 98
64 65
64 66
64 68
64 69
64 73
64 74
64 75
64 79
64 80
64 81
64 82
64 83
64 84
64 85
64 86
64 88
64 89
64 90
64 91
64 93
64 94
64 95
64 96
64 97
64 98
64 99
65 67
65 69
65 71
65 72
65 74
65 76
65 77
65 78
65 80
65 81
65 85
65 86
65 88
65 90
65 91
65 92
65 94
65 95
65 96
65 97
65 98
65 99
66 67
66 68
66 70
66 73
66 74
66 76
66 79
66 83
66 84
66 85
66 86
66 92
66 93
66 94
66 97
66 98
66 99
67 68
67 69
67 73
67 78
67 79
67 81
67 83
67 84
67 85
67 90
67 92
67 95
67 96
68 71
68 72
68 73
68 75
68 79
68 80
68 81
68 83
68 84
68 85
68 90
68 91
68 97
68 98
69 70
69 71
69 73
69 74
69 75
69 77
69 81
69 82
69 83
69 84
69 85
69 86
69 90
69 92
69 94
69 95
69 96
69 97
69 98
70 71
70 72
70 74
70 78
70 80
70 82
70 83
70 84
70 85
70 89
70 91
70 97
70 99
71 72
71 76
71 77
71 78
71 81
71 82
71 85
71 86
71 89
71 91
71 95
71 99
72 73
72 74
72 75
72 77
72 78
72 79
72 80
72 82
72 84
72 87
72 88
72 89
72 91
72 92
72 94
72 95
72 97
72 98
72 99
73 76
73 77
73 78
73 81
73 83
73 84
73 85
73 86
73 87
73 88
73 89
73 95
73 96
73 97
73 99
74 76
74 80
74 83
74 84
74 85
74 86
74 87
74 88
74 91
74 92
74 95
75 76
75 77
75 78
75 80
75 81
75 82
75 83
75 84
75 85
75 86
75 87
75 88
75 89
75 91
75 93
75 96
75 97
75 99
76 77
76 78
76 79
76 85
76 87
76 88
76 89
76 92
76 93
76 94
76 95
76 97
76 99
77 79
77 82
77 83
77 86
77 87
77 88
77 90
77 91
77 93
77 94
77 95
77 97
77 99
78 79
78 81
78 82
78 83
78 85
78 86
78 87
78 89
78 90
78 91
78 95
78 96
78 99
79 80
79 82
79 83
79 85
79 86
79 87
79 88
79 91
79 96
79 97
79 98
80 82
80 85
80 87
80 88
80 91
80 92
80 94
80 95
80 97
80 98
80 99
81 83
81 85
81 86
81 87
81 88
81 89
81 92
81 93
81 94
81 95
81 96
81 97
81 99
82 83
82 84
82 85
82 86
82 87
82 88
82 89
82 90
82 93
82 96
82 97
82 98
82 99
83 84
83 85
83 86
83 91
83 92
83 93
83 95
83 96
83 97
83 99
84 85
84 87
84 90
84 91
84 93
84 95
84 96
84 98
84 99
85 90
85 91
85 92
85 93
85 95
85 98
85 99
86 90
86 91
86 92
86 93
86 94
86 95
86 97
86 98
86 99
87 90
87 92
87 93
87 94
87 96
87 98
88 91
88 93
88 94
88 95
88 96
88 97
88 99
89 90
89 91
89 92
89 94
89 95
89 97
89 98
89 99
90 92
90 95
90 96
90 99
91 92
91 95
91 97
91 98
91 99
92 93
92 95
92 96
92 98
92 99
93 95
93 96
93 97
93 98
94 95
94 96
94 98
95 96
95 99
96 97
96 99
97 98
25 32 46 99 0 58 36 14 78 84 20 57 74 33 1
21 64 81 98 65 88 91 3 45 54 34 7 56 19 6
2 95 92 18 62 71 50 66 80 8 76 24 79 72 17
22 4 31 12 41 90 60 52 51 10 5 97 43 13 23
94 38 29 28 40 37 89 63 70 83 15 73 49 42 61
86 11 96 39 47 87 67 55 82 27 77 85 93 30 69
9 48 35 44 16 53 75 59 68 26
